Optimal - objective value 140.14000000
      0 x_0_3                   1                   26.02
      1 x_0_4                   1                   21.76
      6 x_1_11                  1                     9.4
     10 x_2_14                  1                   13.29
     12 x_3_12                  1                    25.8
     13 x_4_11                  1                   14.99
     20 x_12_14                 1                   28.88
     21 f_0_3                   2                       0
     22 f_3_0                   1                       0
     23 f_0_4                   2                       0
     34 f_11_1                  1                       0
     41 f_2_14                  1                       0
     42 f_14_2                  2                       0
     45 f_3_12                  1                       0
     47 f_4_11                2.5                       0
     48 f_11_4                0.5                       0
     61 f_12_14                 1                       0
